Reading model...
...model read.
creating competitive generators file...
...competitive generators recorded.
Loading data...
.. real-time data read.
Compiling instance...
...instance created.
Creating Offer Mitigation (model will solve as dispatch if TRUE)...
NOTE: storage offers will not be mitigated
...storage offer mitigation file created
Converting model to MPEC...
...converted
NOTE: initial MIP solve with only storage competitive to get feasible solution
Solving...

Welcome to IBM(R) ILOG(R) CPLEX(R) Interactive Optimizer 12.9.0.0
  with Simplex, Mixed Integer & Barrier Optimizers
5725-A06 5725-A29 5724-Y48 5724-Y49 5724-Y54 5724-Y55 5655-Y21
Copyright IBM Corp. 1988, 2019.  All Rights Reserved.

Type 'help' for a list of available commands.
Type 'help' followed by a command name for more
information on commands.

CPLEX> Logfile 'cplex.log' closed.
Logfile 'C:\Users\llavin\Desktop\test85\logs\tmpnfnxkyy6.cplex.log' open.
CPLEX> New value for parallel optimization mode: -1
CPLEX> New value for mixed integer optimality gap tolerance: 0.001
CPLEX> New value for deterministic time limit in ticks: 100000
CPLEX> Problem 'C:\Users\llavin\Desktop\test85\logs\tmpqnnhk3om.pyomo.lp' read.
Read time = 0.52 sec. (27.84 ticks)
CPLEX> Problem name         : C:\Users\llavin\Desktop\test85\logs\tmpqnnhk3om.pyomo.lp
Objective sense      : Maximize
Variables            :  107779  [Nneg: 1,  Box: 44054,  Free: 8928,
                                 Binary: 54796]
Objective nonzeros   :   17611
Linear constraints   :  246995  [Less: 82866,  Greater: 118424,  Equal: 45705]
  Nonzeros           :  581014
  RHS nonzeros       :  134776

Variables            : Min LB: -5000.000        Max UB: 1000000.       
Objective nonzeros   : Min   : 0.008333333      Max   : 2500.000       
Linear constraints   :
  Nonzeros           : Min   : 0.008333333      Max   : 1000000.       
  RHS nonzeros       : Min   : 0.008333333      Max   : 1000000.       
CPLEX> CPXPARAM_Parallel                                -1
CPXPARAM_DetTimeLimit                            100000
CPXPARAM_MIP_Tolerances_MIPGap                   0.001
Tried aggregator 3 times.
MIP Presolve eliminated 180793 rows and 40651 columns.
MIP Presolve added 6234 rows and 0 columns.
MIP Presolve modified 49254 coefficients.
Aggregator did 25872 substitutions.
Reduced MIP has 46564 rows, 39762 columns, and 128863 nonzeros.
Reduced MIP has 15665 binaries, 0 generals, 0 SOSs, and 0 indicators.
Presolve time = 0.59 sec. (341.61 ticks)
Probing fixed 807 vars, tightened 7042 bounds.
Probing time = 0.36 sec. (13.39 ticks)
Tried aggregator 2 times.
MIP Presolve eliminated 1819 rows and 1629 columns.
MIP Presolve modified 5672 coefficients.
Aggregator did 48 substitutions.
Reduced MIP has 44697 rows, 38085 columns, and 123437 nonzeros.
Reduced MIP has 14852 binaries, 0 generals, 0 SOSs, and 0 indicators.
Presolve time = 0.23 sec. (219.29 ticks)
Probing fixed 0 vars, tightened 149 bounds.
Probing time = 0.47 sec. (14.31 ticks)
Clique table members: 80261.
MIP emphasis: balance optimality and feasibility.
MIP search method: dynamic search.
Parallel mode: opportunistic, using up to 32 threads.
Root relaxation solution time = 0.97 sec. (1751.92 ticks)

        Nodes                                         Cuts/
   Node  Left     Objective  IInf  Best Integer    Best Bound    ItCnt     Gap

      0     0      454.1493   205                    454.1493     9646         
      0     0      454.1466    18                    Cuts: 41     9667         
      0     0      454.1466    18                     Cuts: 7     9670         
      0     0      454.1459    18                     Cuts: 2     9675         
*     0+    0                        -3944.3690      454.1459           111.51%
*     0+    0                        -3373.4734      454.1459           113.46%
      0     2      454.1459    16    -3373.4734      Cuts: 18     9675  113.46%
Elapsed time = 10.63 sec. (4785.20 ticks, tree = 0.02 MB, solutions = 14)
    116    54       77.8004     8       51.8996      136.5921    10958  163.19%
    368   184       77.4947     8       51.8996      129.6999    12576  149.91%
    692    48       84.6926     8       51.8996      124.4085    10909  139.71%
   1079    94    infeasible             51.8996       70.6612    11254   36.15%
   1338   158       66.5705     8       51.8996       70.6612    12299   36.15%
   1530   182    infeasible             51.8996       70.6612    13670   36.15%
   1672   118        cutoff             51.8996       70.6612    14288   36.15%

Cover cuts applied:  2
Implied bound cuts applied:  67
Flow cuts applied:  5
Gomory fractional cuts applied:  4

Root node processing (before b&c):
  Real time             =    5.98 sec. (4684.03 ticks)
Parallel b&c, 32 threads:
  Real time             =   14.22 sec. (1959.46 ticks)
  Sync time (average)   =    5.39 sec.
  Wait time (average)   =    0.00 sec.
                          ------------
Total (root+branch&cut) =   20.20 sec. (6643.49 ticks)

Solution pool: 15 solutions saved.

MIP - Integer optimal solution:  Objective =  5.1899591490e+01
Solution time =   20.23 sec.  Iterations = 15403  Nodes = 1685
Deterministic time = 6643.79 ticks  (328.33 ticks/sec)

CPLEX> Incumbent solution written to file 'C:\Users\llavin\Desktop\test85\logs\tmpugvkmr1h.cplex.sol'.
CPLEX> NOTE: no warmstart specified for MIP iteration, default behavior is true
NOTE: resolving with all competitive generators using storage-only solution to warmstart
Solving...

Welcome to IBM(R) ILOG(R) CPLEX(R) Interactive Optimizer 12.9.0.0
  with Simplex, Mixed Integer & Barrier Optimizers
5725-A06 5725-A29 5724-Y48 5724-Y49 5724-Y54 5724-Y55 5655-Y21
Copyright IBM Corp. 1988, 2019.  All Rights Reserved.

Type 'help' for a list of available commands.
Type 'help' followed by a command name for more
information on commands.

CPLEX> Logfile 'cplex.log' closed.
Logfile 'C:\Users\llavin\Desktop\test85\logs\tmpr4xr5a9u.cplex.log' open.
CPLEX> New value for parallel optimization mode: -1
CPLEX> New value for mixed integer optimality gap tolerance: 0.001
CPLEX> New value for deterministic time limit in ticks: 100000
CPLEX> Problem 'C:\Users\llavin\Desktop\test85\logs\tmph7rfcvru.pyomo.lp' read.
Read time = 0.53 sec. (27.89 ticks)
CPLEX> MIP start file 'C:\Users\llavin\Desktop\test85\logs\tmp7qiybtqb.cplex.mst' read.
CPLEX> Problem name         : C:\Users\llavin\Desktop\test85\logs\tmph7rfcvru.pyomo.lp
Objective sense      : Maximize
Variables            :  109219  [Nneg: 1,  Box: 45494,  Free: 8928,
                                 Binary: 54796]
Objective nonzeros   :   19003
Linear constraints   :  246995  [Less: 82866,  Greater: 118424,  Equal: 45705]
  Nonzeros           :  581014
  RHS nonzeros       :  134776

Variables            : Min LB: -5000.000        Max UB: 1000000.       
Objective nonzeros   : Min   : 0.008333333      Max   : 2500.000       
Linear constraints   :
  Nonzeros           : Min   : 0.008333333      Max   : 1000000.       
  RHS nonzeros       : Min   : 0.008333333      Max   : 1000000.       
CPLEX> CPXPARAM_Parallel                                -1
CPXPARAM_DetTimeLimit                            100000
CPXPARAM_MIP_Tolerances_MIPGap                   0.001
1 of 1 MIP starts provided solutions.
MIP start 'm1' defined initial solution with objective 1816.9002.
Tried aggregator 3 times.
MIP Presolve eliminated 180793 rows and 42091 columns.
MIP Presolve added 6234 rows and 0 columns.
MIP Presolve modified 49254 coefficients.
Aggregator did 25872 substitutions.
Reduced MIP has 46564 rows, 39762 columns, and 128863 nonzeros.
Reduced MIP has 15665 binaries, 0 generals, 0 SOSs, and 0 indicators.
Presolve time = 0.61 sec. (342.35 ticks)
Probing fixed 807 vars, tightened 7042 bounds.
Probing time = 0.38 sec. (13.39 ticks)
Tried aggregator 2 times.
MIP Presolve eliminated 1819 rows and 1629 columns.
MIP Presolve modified 5672 coefficients.
Aggregator did 48 substitutions.
Reduced MIP has 44697 rows, 38085 columns, and 123437 nonzeros.
Reduced MIP has 14852 binaries, 0 generals, 0 SOSs, and 0 indicators.
Presolve time = 0.25 sec. (219.15 ticks)
Probing fixed 0 vars, tightened 192 bounds.
Probing time = 0.53 sec. (14.57 ticks)
Clique table members: 79918.
MIP emphasis: balance optimality and feasibility.
MIP search method: dynamic search.
Parallel mode: opportunistic, using up to 32 threads.
Root relaxation solution time = 1.03 sec. (1795.84 ticks)

        Nodes                                         Cuts/
   Node  Left     Objective  IInf  Best Integer    Best Bound    ItCnt     Gap

*     0+    0                         1816.9002   1.00374e+07              --- 
      0     0    28000.4046   387     1816.9002    28000.4046    10240     --- 
*     0+    0                         1816.9002    28000.4046              --- 
      0     0    26780.6814   480     1816.9002     Cuts: 381    10924     --- 
      0     0    26480.0050   466     1816.9002     Cuts: 704    11312     --- 
      0     0    26390.9223   456     1816.9002     Cuts: 466    11475     --- 
      0     0    26362.1396   458     1816.9002     Cuts: 184    11548     --- 
      0     0    26334.6259   441     1816.9002      Cuts: 84    11593     --- 
      0     0    26301.8782   446     1816.9002      Cuts: 91    11655     --- 
      0     0    26297.5153   460     1816.9002      Cuts: 42    11706     --- 
      0     0    26279.0090   462     1816.9002      Cuts: 48    11753     --- 
      0     0    26272.8576   438     1816.9002      Cuts: 18    11797     --- 
      0     0    26266.3969   445     1816.9002      Cuts: 92    11832     --- 
      0     0    26259.3431   452     1816.9002      Cuts: 18    11851     --- 
      0     0    26257.5785   463     1816.9002      Cuts: 24    11872     --- 
      0     0    26252.5114   406     1816.9002      Cuts: 15    11889     --- 
      0     0    26252.5114   398     1816.9002     Cuts: 348    11935     --- 
      0    32    24965.6814   364     1816.9002      Cuts: 38    12878     --- 
Elapsed time = 14.89 sec. (7766.72 ticks, tree = 0.39 MB, solutions = 2)
    206    79    24399.5267   343     1816.9002    25924.1653    14318     --- 
    485    88    24275.8119   339     1816.9002    25924.1653    14551     --- 
    811   102    21402.7506   197     1816.9002    25918.2334    14469     --- 
   1119   430    17962.7861   262     1816.9002    25892.4263    19610     --- 
   1523   478    infeasible           1816.9002    25892.4263    20141     --- 
   1922   894    15423.0467   147     1816.9002    25892.4263    25885     --- 
   2303  1124    12725.3893   110     1816.9002    25892.4263    29679     --- 
   2674  1170    14832.5867   114     1816.9002    25892.4263    31098     --- 
   3021  1512    14151.4601   136     1816.9002    25892.4263    37590     --- 
   4445  3146     5973.2745    47     1816.9002    25892.4263    56069     --- 
Elapsed time = 36.20 sec. (10876.07 ticks, tree = 36.69 MB, solutions = 2)
*  5346  2906      integral     0     2769.2793    25892.4263    53553  834.99%
   6186  3697     5249.2700    55     2769.2793    25885.3266    75507  834.73%
   6229  4411    infeasible           2769.2793     7577.1660   113364  173.62%
   6571    55     3581.7076    71     2769.2793     6659.5284   115015  140.48%
   7272    68     3048.0223    62     2769.2793     6659.5284   114875  140.48%
   8140    57        cutoff           2769.2793     6575.1321   115550  137.43%
   8915    82        cutoff           2769.2793     6192.4146   117870  123.61%
   9720   271     2986.4817    65     2812.3692     6180.3915   127171  119.76%
  10726   382     2832.5389    60     2816.1898     5433.7734   131386   92.95%
  11902  1446     2831.8315    20     2821.1789     5433.7734   178390   92.61%
Elapsed time = 114.11 sec. (29349.12 ticks, tree = 13.71 MB, solutions = 8)
  13247  1254     2826.2248    18     2821.1789     3964.5539   166229   40.53%
  14806  2707     3044.4029    54     2821.1789     3719.1039   235065   31.83%
  16252  2987     3408.0022    51     2821.1789     3586.2319   247663   27.12%
  17786  3109     2845.5824    27     2821.1789     3491.7793   250868   23.77%
  19306  3870     2823.9242    19     2821.1789     3491.7793   287031   23.77%
  20967  4115        cutoff           2821.1789     3267.8132   297654   15.83%
  22607  4763     2941.7865    56     2821.1789     3041.7150   315174    7.82%
  24158  3820     2823.6919    13     2821.1789     2921.6899   284892    3.56%
  25682  3850     2854.0790    42     2821.1789     2886.2674   286994    2.31%
  27376  4147    infeasible           2821.1789     2839.3116   366667    0.64%
Elapsed time = 175.89 sec. (38893.06 ticks, tree = 49.18 MB, solutions = 8)
  29177  3328     2840.3762    28     2821.1789     2832.1538   381965    0.39%
  30908  2505     2827.8975    53     2821.1789     2827.4797   397551    0.22%
  32498  2172        cutoff           2821.1789     2827.4797   401311    0.22%
  33830  1186        cutoff           2821.1789     2827.4797   408529    0.22%
  34520   701        cutoff           2821.1789     2827.4797   411030    0.22%
  34719  1776        cutoff           2821.1789     2827.4797   404207    0.22%
  34811   792        cutoff           2821.1789     2827.4797   410469    0.22%

Cover cuts applied:  5
Implied bound cuts applied:  92
Flow cuts applied:  181
Mixed integer rounding cuts applied:  54
Lift and project cuts applied:  28
Gomory fractional cuts applied:  10

Root node processing (before b&c):
  Real time             =   11.00 sec. (7652.86 ticks)
Parallel b&c, 32 threads:
  Real time             =  174.69 sec. (38364.21 ticks)
  Sync time (average)   =    7.26 sec.
  Wait time (average)   =    0.31 sec.
                          ------------
Total (root+branch&cut) =  185.69 sec. (46017.07 ticks)

Solution pool: 8 solutions saved.

MIP - Integer optimal, tolerance (0.001/1e-06):  Objective =  2.8211789389e+03
Current MIP best bound =  2.8239366698e+03 (gap = 2.75773, 0.10%)
Solution time =  185.72 sec.  Iterations = 414151  Nodes = 34839 (372)
Deterministic time = 46017.38 ticks  (247.78 ticks/sec)

CPLEX> Incumbent solution written to file 'C:\Users\llavin\Desktop\test85\logs\tmpxbagog6a.cplex.sol'.
CPLEX> Exporting results... 
